QPLIB_2187
LGQ
minimize
285 # number of variables
270 # number of constraints
0.0 # default value for linear coefficients in objective
90 # number of non-default linear coefficients in objective
1 1.0
2 1.0
3 1.0
4 1.0
5 1.0
6 1.0
7 1.0
8 1.0
9 1.0
10 1.0
11 1.0
12 1.0
13 1.0
14 1.0
15 1.0
16 1.0
17 1.0
18 1.0
19 1.0
20 1.0
21 1.0
22 1.0
23 1.0
24 1.0
25 1.0
26 1.0
27 1.0
28 1.0
29 1.0
30 1.0
31 1.0
32 1.0
33 1.0
34 1.0
35 1.0
36 1.0
37 1.0
38 1.0
39 1.0
40 1.0
41 1.0
42 1.0
43 1.0
44 1.0
45 1.0
46 1.0
47 1.0
48 1.0
49 1.0
50 1.0
51 1.0
52 1.0
53 1.0
54 1.0
55 1.0
56 1.0
57 1.0
58 1.0
59 1.0
60 1.0
61 1.0
62 1.0
63 1.0
64 1.0
65 1.0
66 1.0
67 1.0
68 1.0
69 1.0
70 1.0
71 1.0
72 1.0
73 1.0
74 1.0
75 1.0
76 1.0
77 1.0
78 1.0
79 1.0
80 1.0
81 1.0
82 1.0
83 1.0
84 1.0
85 1.0
86 1.0
87 1.0
88 1.0
89 1.0
90 1.0
0.0 # objective constant
90 # number of quadratic terms in all constraints
181 1663070068 1651076122 2.0
182 1852403556 824206179 2.0
183 1768711012 12321 2.0
184 775173731 1 2.0
185 1646292852 1 2.0
186 824209008 1 2.0
187 12321 50 2.0
188 1 1 2.0
189 1651076122 27459585 2.0
190 1852403556 1 2.0
191 1768711012 50 2.0
192 775173731 1 2.0
193 1651076122 1646292852 2.0
194 1852403556 824209008 2.0
195 1768711012 12321 2.0
196 775173731 1 2.0
197 1663070068 27459585 2.0
198 824206179 1 2.0
199 12321 50 2.0
200 1 1 2.0
201 1651076122 193 2.0
202 1852403556 1 2.0
203 1768711012 50 2.0
204 775173731 1 2.0
205 1663070068 1651076122 2.0
206 1852403556 824206179 2.0
207 1768711012 12321 2.0
208 775173731 1 2.0
209 1663070068 193 2.0
210 824210800 1 2.0
211 1782067233 50 2.0
212 32721 1 2.0
213 1651076122 1 2.0
214 1852403556 1 2.0
215 1768711012 50 2.0
216 775173731 1 2.0
217 1663070068 1651076122 2.0
218 1852403556 824210800 2.0
219 1782067233 1768711012 2.0
220 775173731 32721 2.0
221 1763733364 1 2.0
222 824209265 1 2.0
223 12321 50 2.0
224 1 1 2.0
225 1651076122 1 2.0
226 1852403556 1 2.0
227 1768711012 50 2.0
228 775173731 1 2.0
229 1763733364 1651076122 2.0
230 1852403556 824209265 2.0
231 1768711012 12321 2.0
232 775173731 1 2.0
233 1864396660 1 2.0
234 824205172 1 2.0
235 12321 50 2.0
236 1 1 2.0
237 1651076122 1 2.0
238 1852403556 1 2.0
239 1768711012 50 2.0
240 775173731 1 2.0
241 1864396660 1651076122 2.0
242 1852403556 824205172 2.0
243 1768711012 12321 2.0
244 775173731 1 2.0
245 1931505524 1 2.0
246 824209508 1 2.0
247 1782067489 50 2.0
248 32721 1 2.0
249 1651076122 385 2.0
250 1852403556 1 2.0
251 1768711012 50 2.0
252 775173731 1 2.0
253 1931505524 1651076121 2.0
254 1684959076 824209508 2.0
255 1782067489 1651076196 2.0
256 1932407863 32721 2.0
257 1868767344 385 2.0
258 540090479 1 2.0
259 50 50 2.0
260 1 1 2.0
261 1651076121 27480561 2.0
262 1684959076 1 2.0
263 1651076196 50 2.0
264 1932407863 1 2.0
265 1868767344 1651076121 2.0
266 1684959076 540090479 2.0
267 1651076196 50 2.0
268 1932407863 1 2.0
269 1868767344 27480561 2.0
270 540090479 1 2.0
1606 # number of linear terms in all constraints
1 91 -66.0
1 92 49.0
1 93 -81.0
1 94 73.0
1 95 15.0
1 96 56.0
1 97 38.0
1 98 -26.0
1 99 74.0
1 100 48.0
1 101 -11.0
1 102 -29.0
1 103 46.0
1 104 -48.0
1 105 -21.0
1 106 -1.0
2 91 68.0
2 92 14.0
2 93 42.0
2 94 -84.0
2 95 -9.0
2 96 -78.0
2 97 8.0
2 98 -22.0
2 99 13.0
2 100 91.0
2 101 73.0
2 102 -68.0
2 103 -45.0
2 104 -48.0
2 105 84.0
2 107 -1.0
3 91 57.0
3 92 -75.0
3 93 -84.0
3 94 88.0
3 95 -95.0
3 96 -70.0
3 97 -24.0
3 98 -69.0
3 99 5.0
3 100 75.0
3 101 -14.0
3 102 -47.0
3 103 -37.0
3 104 53.0
3 105 -79.0
3 108 -1.0
4 91 40.0
4 92 -57.0
4 93 52.0
4 94 -18.0
4 95 29.0
4 96 85.0
4 98 37.0
4 99 -13.0
4 100 21.0
4 101 14.0
4 102 26.0
4 103 -7.0
4 104 26.0
4 105 -73.0
4 109 -1.0
5 91 -71.0
5 92 -11.0
5 93 -35.0
5 94 90.0
5 95 -29.0
5 96 -20.0
5 97 -80.0
5 98 90.0
5 99 96.0
5 100 14.0
5 101 73.0
5 102 -70.0
5 103 81.0
5 104 29.0
5 105 -88.0
5 110 -1.0
6 91 93.0
6 92 56.0
6 93 60.0
6 94 13.0
6 95 -44.0
6 96 92.0
6 97 15.0
6 98 -13.0
6 99 -25.0
6 100 84.0
6 101 -95.0
6 102 53.0
6 103 44.0
6 104 17.0
6 105 -15.0
6 111 -1.0
7 91 49.0
7 92 -87.0
7 93 -90.0
7 94 54.0
7 95 40.0
7 96 -76.0
7 97 -40.0
7 98 -86.0
7 99 37.0
7 100 -27.0
7 101 45.0
7 102 -61.0
7 103 -69.0
7 104 -68.0
7 105 66.0
7 112 -1.0
8 91 -37.0
8 92 5.0
8 93 -13.0
8 94 -58.0
8 95 45.0
8 96 -100.0
8 97 16.0
8 98 -5.0
8 99 87.0
8 100 52.0
8 101 -75.0
8 102 -98.0
8 104 68.0
8 105 70.0
8 113 -1.0
9 91 71.0
9 92 57.0
9 93 15.0
9 94 -81.0
9 95 65.0
9 96 49.0
9 97 81.0
9 98 1.0
9 99 76.0
9 100 92.0
9 101 12.0
9 102 -5.0
9 103 -17.0
9 104 29.0
9 105 75.0
9 114 -1.0
10 91 -56.0
10 92 99.0
10 93 -69.0
10 94 38.0
10 95 40.0
10 96 97.0
10 97 29.0
10 98 30.0
10 99 68.0
10 100 36.0
10 101 93.0
10 102 -34.0
10 103 59.0
10 104 -68.0
10 105 72.0
10 115 -1.0
11 91 -16.0
11 92 96.0
11 93 73.0
11 94 -7.0
11 95 -51.0
11 96 68.0
11 97 68.0
11 98 47.0
11 99 -74.0
11 100 -5.0
11 101 56.0
11 103 13.0
11 104 -11.0
11 105 -93.0
11 116 -1.0
12 91 -15.0
12 92 16.0
12 93 -83.0
12 94 34.0
12 95 17.0
12 96 -53.0
12 97 48.0
12 98 91.0
12 99 72.0
12 100 -86.0
12 101 7.0
12 102 -24.0
12 103 -100.0
12 104 43.0
12 105 -90.0
12 117 -1.0
13 91 51.0
13 92 25.0
13 93 86.0
13 94 9.0
13 95 -17.0
13 96 -22.0
13 97 -61.0
13 98 -39.0
13 99 -58.0
13 100 21.0
13 101 -26.0
13 102 -68.0
13 103 -8.0
13 104 60.0
13 105 -64.0
13 118 -1.0
14 91 -5.0
14 92 -72.0
14 93 26.0
14 94 -52.0
14 95 -76.0
14 96 74.0
14 97 -80.0
14 98 50.0
14 99 -24.0
14 100 10.0
14 101 -85.0
14 102 -25.0
14 103 24.0
14 104 57.0
14 105 -16.0
14 119 -1.0
15 91 9.0
15 92 45.0
15 93 -2.0
15 94 -48.0
15 96 -2.0
15 97 -2.0
15 98 69.0
15 99 83.0
15 100 -28.0
15 101 8.0
15 102 20.0
15 103 21.0
15 104 -12.0
15 105 41.0
15 120 -1.0
16 91 52.0
16 92 -39.0
16 93 57.0
16 94 -82.0
16 95 79.0
16 96 86.0
16 97 93.0
16 98 23.0
16 99 -87.0
16 100 -78.0
16 101 25.0
16 102 -86.0
16 103 11.0
16 104 -53.0
16 105 22.0
16 121 -1.0
17 91 13.0
17 92 14.0
17 93 -7.0
17 94 -76.0
17 95 -53.0
17 96 99.0
17 97 11.0
17 98 72.0
17 99 -43.0
17 100 45.0
17 101 64.0
17 102 -2.0
17 103 18.0
17 104 -78.0
17 105 -69.0
17 122 -1.0
18 91 18.0
18 92 76.0
18 93 -14.0
18 94 -58.0
18 95 -64.0
18 96 37.0
18 97 -57.0
18 98 -47.0
18 99 -56.0
18 100 -1.0
18 101 -47.0
18 102 -11.0
18 103 -53.0
18 104 -41.0
18 105 29.0
18 123 -1.0
19 91 38.0
19 92 -15.0
19 93 51.0
19 94 -20.0
19 95 -25.0
19 96 27.0
19 97 6.0
19 98 79.0
19 99 30.0
19 100 86.0
19 101 -99.0
19 102 -66.0
19 103 28.0
19 104 52.0
19 105 34.0
19 124 -1.0
20 91 50.0
20 92 79.0
20 93 -57.0
20 94 26.0
20 95 19.0
20 96 24.0
20 97 -27.0
20 98 -86.0
20 99 -50.0
20 100 -28.0
20 101 -3.0
20 103 -42.0
20 104 -53.0
20 105 32.0
20 125 -1.0
21 91 33.0
21 92 -92.0
21 93 67.0
21 94 13.0
21 95 -64.0
21 96 -95.0
21 97 -5.0
21 98 12.0
21 99 -67.0
21 100 21.0
21 101 28.0
21 102 -39.0
21 103 91.0
21 104 52.0
21 105 26.0
21 126 -1.0
22 91 -74.0
22 92 51.0
22 93 -4.0
22 94 42.0
22 95 -77.0
22 96 27.0
22 97 -20.0
22 98 40.0
22 99 56.0
22 100 40.0
22 101 -47.0
22 102 55.0
22 103 -74.0
22 104 -45.0
22 105 -84.0
22 127 -1.0
23 91 -61.0
23 92 23.0
23 93 20.0
23 94 9.0
23 95 13.0
23 96 -75.0
23 97 -86.0
23 98 76.0
23 99 -70.0
23 100 12.0
23 101 -37.0
23 102 -33.0
23 103 -59.0
23 104 34.0
23 105 -93.0
23 128 -1.0
24 91 63.0
24 92 -88.0
24 93 41.0
24 94 -18.0
24 95 77.0
24 96 87.0
24 97 -100.0
24 98 -30.0
24 99 87.0
24 100 98.0
24 101 -28.0
24 102 95.0
24 103 -95.0
24 104 -32.0
24 105 69.0
24 129 -1.0
25 91 40.0
25 92 13.0
25 93 -80.0
25 94 -64.0
25 95 -52.0
25 96 36.0
25 97 97.0
25 98 2.0
25 99 80.0
25 100 -7.0
25 101 -5.0
25 102 -19.0
25 103 51.0
25 104 -77.0
25 105 -71.0
25 130 -1.0
26 91 -48.0
26 92 5.0
26 93 -87.0
26 94 -71.0
26 95 -18.0
26 96 -84.0
26 97 27.0
26 98 -97.0
26 99 -52.0
26 100 15.0
26 101 -68.0
26 102 -47.0
26 103 -85.0
26 104 -71.0
26 105 -83.0
26 131 -1.0
27 91 -6.0
27 92 44.0
27 93 -5.0
27 94 11.0
27 95 -1.0
27 96 -84.0
27 97 -41.0
27 98 -41.0
27 99 -34.0
27 100 -83.0
27 101 -81.0
27 102 -60.0
27 103 -79.0
27 104 -66.0
27 105 66.0
27 132 -1.0
28 91 84.0
28 92 6.0
28 93 -6.0
28 94 39.0
28 95 1.0
28 96 53.0
28 97 96.0
28 98 -7.0
28 99 33.0
28 100 78.0
28 101 70.0
28 102 50.0
28 103 42.0
28 104 -83.0
28 105 59.0
28 133 -1.0
29 91 -9.0
29 92 -27.0
29 93 55.0
29 94 19.0
29 95 -89.0
29 96 -76.0
29 97 11.0
29 98 30.0
29 99 -88.0
29 100 4.0
29 101 68.0
29 102 -69.0
29 103 -100.0
29 104 79.0
29 105 -57.0
29 134 -1.0
30 91 93.0
30 92 63.0
30 93 41.0
30 94 17.0
30 95 35.0
30 96 54.0
30 97 -54.0
30 98 -57.0
30 99 -26.0
30 100 64.0
30 101 -68.0
30 102 22.0
30 103 -76.0
30 104 -13.0
30 105 -100.0
30 135 -1.0
31 91 -8.0
31 92 37.0
31 93 -94.0
31 94 -19.0
31 96 -44.0
31 97 99.0
31 98 -27.0
31 99 -26.0
31 100 90.0
31 101 -84.0
31 102 22.0
31 103 58.0
31 104 -29.0
31 105 94.0
31 136 -1.0
32 91 -14.0
32 92 56.0
32 93 -77.0
32 94 6.0
32 95 -52.0
32 96 22.0
32 97 55.0
32 98 -64.0
32 99 -2.0
32 100 86.0
32 101 -37.0
32 102 -28.0
32 103 -80.0
32 104 -26.0
32 105 77.0
32 137 -1.0
33 91 97.0
33 92 -79.0
33 93 -70.0
33 94 87.0
33 95 56.0
33 96 75.0
33 97 -48.0
33 98 -75.0
33 99 7.0
33 100 -31.0
33 101 -23.0
33 102 -26.0
33 103 -5.0
33 104 45.0
33 105 86.0
33 138 -1.0
34 91 -5.0
34 92 91.0
34 93 -40.0
34 94 -10.0
34 95 64.0
34 96 -24.0
34 97 45.0
34 98 -31.0
34 99 31.0
34 100 72.0
34 101 32.0
34 102 60.0
34 103 85.0
34 104 -36.0
34 105 -5.0
34 139 -1.0
35 91 -15.0
35 92 89.0
35 93 -83.0
35 94 -15.0
35 95 -38.0
35 96 39.0
35 97 -29.0
35 98 6.0
35 99 -78.0
35 100 47.0
35 101 85.0
35 102 -72.0
35 103 88.0
35 104 -96.0
35 105 -20.0
35 140 -1.0
36 91 -80.0
36 92 -93.0
36 93 -19.0
36 94 -11.0
36 95 36.0
36 96 -49.0
36 97 62.0
36 98 -81.0
36 99 29.0
36 100 1.0
36 102 -69.0
36 103 26.0
36 104 -79.0
36 105 -58.0
36 141 -1.0
37 91 97.0
37 92 -97.0
37 93 72.0
37 94 -76.0
37 95 -74.0
37 96 13.0
37 97 -74.0
37 98 72.0
37 99 8.0
37 100 -11.0
37 101 -37.0
37 102 -14.0
37 103 93.0
37 104 61.0
37 105 44.0
37 142 -1.0
38 91 86.0
38 92 -77.0
38 93 -7.0
38 94 -22.0
38 95 -24.0
38 96 -50.0
38 97 -74.0
38 98 24.0
38 99 23.0
38 100 -2.0
38 101 3.0
38 102 56.0
38 103 -45.0
38 104 -15.0
38 105 -79.0
38 143 -1.0
39 91 80.0
39 92 15.0
39 93 62.0
39 94 56.0
39 95 41.0
39 96 -32.0
39 97 87.0
39 98 -59.0
39 99 44.0
39 100 66.0
39 101 -31.0
39 102 -35.0
39 103 -32.0
39 104 5.0
39 105 10.0
39 144 -1.0
40 91 -9.0
40 93 -50.0
40 94 1.0
40 95 -52.0
40 96 21.0
40 97 -41.0
40 98 82.0
40 99 13.0
40 100 -41.0
40 101 -3.0
40 102 -72.0
40 103 28.0
40 104 -74.0
40 105 64.0
40 145 -1.0
41 91 -19.0
41 92 -69.0
41 93 43.0
41 94 -4.0
41 95 43.0
41 96 70.0
41 97 67.0
41 98 -5.0
41 99 82.0
41 100 -84.0
41 101 -67.0
41 102 35.0
41 103 53.0
41 104 82.0
41 105 -14.0
41 146 -1.0
42 91 -30.0
42 92 33.0
42 93 -57.0
42 94 -2.0
42 95 -60.0
42 96 -18.0
42 97 -23.0
42 98 73.0
42 99 -22.0
42 100 53.0
42 101 12.0
42 102 -25.0
42 103 81.0
42 104 69.0
42 105 -44.0
42 147 -1.0
43 91 94.0
43 92 52.0
43 93 -68.0
43 94 -64.0
43 95 3.0
43 96 -38.0
43 97 96.0
43 98 43.0
43 99 15.0
43 100 -16.0
43 101 -17.0
43 102 -59.0
43 103 90.0
43 104 76.0
43 105 -99.0
43 148 -1.0
44 91 -42.0
44 92 73.0
44 93 95.0
44 94 28.0
44 95 -16.0
44 96 73.0
44 97 -37.0
44 98 98.0
44 99 -85.0
44 100 -45.0
44 101 66.0
44 102 -94.0
44 103 52.0
44 104 -23.0
44 105 -54.0
44 149 -1.0
45 91 -34.0
45 92 95.0
45 93 49.0
45 94 19.0
45 95 23.0
45 96 22.0
45 97 13.0
45 98 -34.0
45 99 22.0
45 100 -21.0
45 101 46.0
45 102 -96.0
45 103 -23.0
45 104 22.0
45 105 19.0
45 150 -1.0
46 91 57.0
46 92 63.0
46 93 64.0
46 94 22.0
46 95 -38.0
46 96 63.0
46 97 -92.0
46 98 -62.0
46 99 16.0
46 100 -65.0
46 101 -12.0
46 103 1.0
46 104 -7.0
46 105 -38.0
46 151 -1.0
47 91 50.0
47 92 -15.0
47 93 14.0
47 94 69.0
47 95 58.0
47 96 -75.0
47 97 85.0
47 98 15.0
47 99 -11.0
47 100 31.0
47 101 -55.0
47 102 -93.0
47 103 -34.0
47 104 -81.0
47 105 -18.0
47 152 -1.0
48 91 5.0
48 92 -87.0
48 93 63.0
48 94 -79.0
48 95 -38.0
48 96 79.0
48 97 -71.0
48 98 -67.0
48 99 68.0
48 100 -96.0
48 101 98.0
48 102 11.0
48 103 16.0
48 104 -39.0
48 105 -74.0
48 153 -1.0
49 91 -81.0
49 92 -75.0
49 93 6.0
49 94 -22.0
49 95 -57.0
49 96 -21.0
49 97 -61.0
49 98 92.0
49 99 8.0
49 100 41.0
49 101 -33.0
49 102 64.0
49 103 7.0
49 104 54.0
49 105 -93.0
49 154 -1.0
50 91 55.0
50 92 -9.0
50 93 84.0
50 94 -75.0
50 95 -88.0
50 96 79.0
50 97 -49.0
50 98 79.0
50 99 -25.0
50 100 -97.0
50 101 15.0
50 102 20.0
50 103 -88.0
50 104 -8.0
50 105 56.0
50 155 -1.0
51 91 -71.0
51 92 -59.0
51 93 83.0
51 94 47.0
51 95 -50.0
51 96 -42.0
51 97 -69.0
51 98 92.0
51 99 68.0
51 100 -64.0
51 101 35.0
51 102 -35.0
51 103 -67.0
51 104 58.0
51 105 34.0
51 156 -1.0
52 91 -51.0
52 92 -54.0
52 93 36.0
52 94 -38.0
52 95 -27.0
52 96 69.0
52 97 72.0
52 98 50.0
52 99 -77.0
52 100 -55.0
52 101 95.0
52 102 -92.0
52 103 19.0
52 104 3.0
52 105 -19.0
52 157 -1.0
53 91 34.0
53 92 2.0
53 93 56.0
53 94 -6.0
53 95 -49.0
53 96 -76.0
53 97 26.0
53 98 22.0
53 99 6.0
53 100 -76.0
53 101 -50.0
53 102 -95.0
53 103 -25.0
53 104 -50.0
53 105 21.0
53 158 -1.0
54 91 -96.0
54 92 -46.0
54 93 88.0
54 94 48.0
54 95 2.0
54 96 -48.0
54 97 94.0
54 98 32.0
54 99 66.0
54 100 -91.0
54 101 7.0
54 102 -34.0
54 103 -30.0
54 104 -77.0
54 105 -65.0
54 159 -1.0
55 91 65.0
55 92 22.0
55 93 34.0
55 94 -98.0
55 95 99.0
55 96 -73.0
55 97 -93.0
55 98 -14.0
55 99 49.0
55 100 54.0
55 101 23.0
55 102 -93.0
55 103 -63.0
55 104 -87.0
55 105 -22.0
55 160 -1.0
56 91 99.0
56 92 91.0
56 93 -70.0
56 94 67.0
56 95 -18.0
56 96 -88.0
56 97 -70.0
56 98 80.0
56 99 39.0
56 100 -11.0
56 101 -49.0
56 102 -62.0
56 103 -32.0
56 104 46.0
56 105 -31.0
56 161 -1.0
57 91 -47.0
57 92 23.0
57 93 -78.0
57 94 45.0
57 95 -66.0
57 96 -94.0
57 97 2.0
57 98 -67.0
57 99 31.0
57 100 -29.0
57 101 -5.0
57 102 5.0
57 103 94.0
57 104 77.0
57 105 -42.0
57 162 -1.0
58 91 -36.0
58 92 -70.0
58 93 37.0
58 94 45.0
58 95 -86.0
58 96 49.0
58 97 -22.0
58 98 95.0
58 99 3.0
58 100 -19.0
58 102 -4.0
58 103 54.0
58 104 72.0
58 105 45.0
58 163 -1.0
59 91 3.0
59 92 -7.0
59 93 -22.0
59 94 52.0
59 95 -8.0
59 96 71.0
59 97 -61.0
59 98 87.0
59 99 -9.0
59 100 -28.0
59 101 -65.0
59 102 -71.0
59 103 -53.0
59 104 13.0
59 105 -1.0
59 164 -1.0
60 91 -26.0
60 92 61.0
60 93 47.0
60 94 44.0
60 95 82.0
60 96 -62.0
60 97 -21.0
60 98 -80.0
60 99 -77.0
60 100 -67.0
60 101 86.0
60 102 -62.0
60 103 64.0
60 104 83.0
60 105 -66.0
60 165 -1.0
61 91 -59.0
61 92 -96.0
61 93 -67.0
61 94 -61.0
61 95 37.0
61 96 75.0
61 97 -84.0
61 98 -61.0
61 99 45.0
61 100 67.0
61 101 33.0
61 102 59.0
61 103 -93.0
61 104 46.0
61 105 -4.0
61 166 -1.0
62 91 50.0
62 92 51.0
62 93 -52.0
62 94 -45.0
62 95 -23.0
62 96 34.0
62 97 33.0
62 98 56.0
62 99 -35.0
62 100 45.0
62 101 -83.0
62 102 -63.0
62 103 -25.0
62 104 10.0
62 105 9.0
62 167 -1.0
63 91 -10.0
63 92 14.0
63 93 -27.0
63 94 94.0
63 95 17.0
63 96 73.0
63 97 -95.0
63 98 -93.0
63 99 49.0
63 100 -59.0
63 101 -29.0
63 102 -29.0
63 103 29.0
63 104 74.0
63 105 -57.0
63 168 -1.0
64 91 59.0
64 92 -93.0
64 93 -24.0
64 94 99.0
64 95 -6.0
64 96 17.0
64 97 -97.0
64 98 98.0
64 99 -70.0
64 100 -90.0
64 101 -71.0
64 102 99.0
64 103 -59.0
64 104 41.0
64 105 45.0
64 169 -1.0
65 91 -85.0
65 92 -53.0
65 93 76.0
65 94 -78.0
65 95 20.0
65 96 -26.0
65 97 -35.0
65 98 -27.0
65 99 -79.0
65 100 -93.0
65 101 -21.0
65 102 52.0
65 103 85.0
65 104 6.0
65 105 5.0
65 170 -1.0
66 91 -77.0
66 92 -14.0
66 93 -81.0
66 94 -62.0
66 95 -8.0
66 96 -33.0
66 97 76.0
66 98 -15.0
66 99 14.0
66 100 15.0
66 101 -26.0
66 102 -28.0
66 103 -70.0
66 104 -96.0
66 105 98.0
66 171 -1.0
67 91 -76.0
67 92 33.0
67 93 16.0
67 94 45.0
67 95 -37.0
67 96 -30.0
67 97 -10.0
67 98 -20.0
67 99 -39.0
67 100 -24.0
67 101 79.0
67 102 -81.0
67 103 71.0
67 104 -86.0
67 105 -51.0
67 172 -1.0
68 91 23.0
68 92 16.0
68 93 -58.0
68 94 -9.0
68 95 21.0
68 96 86.0
68 97 -89.0
68 98 -19.0
68 100 -7.0
68 101 46.0
68 102 78.0
68 103 40.0
68 104 -86.0
68 105 2.0
68 173 -1.0
69 91 -89.0
69 92 50.0
69 93 -80.0
69 94 -42.0
69 95 81.0
69 96 73.0
69 97 -26.0
69 98 -95.0
69 99 40.0
69 100 -91.0
69 101 16.0
69 102 88.0
69 103 70.0
69 104 -10.0
69 105 13.0
69 174 -1.0
70 91 23.0
70 92 -43.0
70 93 5.0
70 94 55.0
70 95 -85.0
70 96 54.0
70 97 -51.0
70 98 63.0
70 99 -32.0
70 100 -84.0
70 101 -64.0
70 102 -23.0
70 103 17.0
70 104 72.0
70 105 -50.0
70 175 -1.0
71 91 -38.0
71 92 14.0
71 93 87.0
71 94 42.0
71 95 -48.0
71 96 -83.0
71 97 95.0
71 98 2.0
71 99 -30.0
71 100 -8.0
71 101 -29.0
71 102 59.0
71 103 -56.0
71 104 25.0
71 105 -68.0
71 176 -1.0
72 91 -23.0
72 92 -33.0
72 93 11.0
72 94 39.0
72 95 52.0
72 96 -75.0
72 97 -99.0
72 98 37.0
72 99 52.0
72 100 -48.0
72 101 -73.0
72 102 -34.0
72 103 54.0
72 104 -55.0
72 105 78.0
72 177 -1.0
73 91 14.0
73 92 -31.0
73 93 -27.0
73 94 41.0
73 95 -85.0
73 96 -34.0
73 97 -70.0
73 98 -87.0
73 99 -47.0
73 100 -13.0
73 101 -46.0
73 102 58.0
73 103 -27.0
73 104 -96.0
73 105 6.0
73 178 -1.0
74 91 59.0
74 92 17.0
74 93 -54.0
74 94 99.0
74 95 -18.0
74 96 55.0
74 97 9.0
74 98 71.0
74 99 -88.0
74 100 64.0
74 101 24.0
74 102 -93.0
74 103 -9.0
74 104 -7.0
74 105 -52.0
74 179 -1.0
75 91 -37.0
75 92 30.0
75 93 25.0
75 94 83.0
75 95 29.0
75 96 2.0
75 97 85.0
75 98 42.0
75 99 9.0
75 100 2.0
75 101 -5.0
75 102 -25.0
75 103 -66.0
75 104 -3.0
75 105 -81.0
75 180 -1.0
76 91 -15.0
76 92 18.0
76 93 -60.0
76 94 -18.0
76 95 13.0
76 96 -17.0
76 97 77.0
76 98 -56.0
76 99 33.0
76 100 60.0
76 101 16.0
76 102 94.0
76 104 63.0
76 105 21.0
76 181 -1.0
77 91 -69.0
77 92 26.0
77 93 94.0
77 94 -31.0
77 95 29.0
77 96 5.0
77 97 -45.0
77 98 -90.0
77 99 84.0
77 100 -39.0
77 101 9.0
77 102 -25.0
77 103 -80.0
77 104 -15.0
77 182 -1.0
78 91 42.0
78 92 -24.0
78 93 -64.0
78 94 78.0
78 95 82.0
78 96 -69.0
78 97 75.0
78 98 -79.0
78 99 -28.0
78 100 -100.0
78 101 76.0
78 102 37.0
78 103 69.0
78 104 -38.0
78 105 40.0
78 183 -1.0
79 91 -13.0
79 92 -4.0
79 93 79.0
79 94 16.0
79 95 9.0
79 96 -84.0
79 97 97.0
79 98 -28.0
79 99 -67.0
79 100 -42.0
79 101 53.0
79 102 98.0
79 103 6.0
79 104 -18.0
79 105 36.0
79 184 -1.0
80 91 26.0
80 92 68.0
80 93 71.0
80 94 78.0
80 95 -31.0
80 96 57.0
80 97 17.0
80 98 -56.0
80 99 5.0
80 100 -54.0
80 101 -5.0
80 102 -100.0
80 103 -36.0
80 104 -38.0
80 105 -1.0
80 185 -1.0
81 91 15.0
81 92 74.0
81 93 -36.0
81 94 -42.0
81 95 -84.0
81 96 -6.0
81 97 -63.0
81 98 8.0
81 99 87.0
81 100 32.0
81 101 63.0
81 102 -61.0
81 103 49.0
81 104 85.0
81 105 -60.0
81 186 -1.0
82 91 -23.0
82 92 -36.0
82 93 59.0
82 94 -57.0
82 95 -6.0
82 96 -56.0
82 97 12.0
82 98 41.0
82 99 -67.0
82 100 67.0
82 101 -51.0
82 102 47.0
82 103 -3.0
82 104 2.0
82 105 14.0
82 187 -1.0
83 91 47.0
83 92 51.0
83 93 87.0
83 94 -5.0
83 95 -38.0
83 96 56.0
83 97 91.0
83 98 -22.0
83 99 -3.0
83 100 37.0
83 101 -24.0
83 102 -94.0
83 103 -68.0
83 104 21.0
83 105 -56.0
83 188 -1.0
84 91 14.0
84 92 44.0
84 93 93.0
84 94 69.0
84 95 75.0
84 96 17.0
84 97 -11.0
84 98 61.0
84 99 89.0
84 100 98.0
84 101 -90.0
84 102 41.0
84 103 76.0
84 104 32.0
84 105 -2.0
84 189 -1.0
85 91 -61.0
85 92 -95.0
85 93 -9.0
85 94 -87.0
85 95 56.0
85 96 -83.0
85 97 11.0
85 98 48.0
85 99 50.0
85 100 99.0
85 101 -54.0
85 102 -30.0
85 103 -45.0
85 104 24.0
85 105 69.0
85 190 -1.0
86 91 -6.0
86 92 69.0
86 93 -43.0
86 94 -25.0
86 95 54.0
86 96 14.0
86 97 -17.0
86 98 14.0
86 99 -99.0
86 100 -60.0
86 101 -21.0
86 102 -38.0
86 103 -49.0
86 104 24.0
86 105 19.0
86 191 -1.0
87 91 -92.0
87 92 7.0
87 93 -80.0
87 94 -42.0
87 95 -50.0
87 96 98.0
87 97 58.0
87 98 97.0
87 99 -15.0
87 100 -6.0
87 101 -67.0
87 102 -21.0
87 103 55.0
87 104 11.0
87 105 -80.0
87 192 -1.0
88 91 47.0
88 92 -42.0
88 93 36.0
88 94 -19.0
88 95 -14.0
88 96 -16.0
88 97 -85.0
88 98 -45.0
88 99 59.0
88 100 22.0
88 101 -37.0
88 102 -43.0
88 103 -51.0
88 104 -49.0
88 105 72.0
88 193 -1.0
89 91 20.0
89 92 -87.0
89 93 81.0
89 94 -49.0
89 95 -6.0
89 96 -57.0
89 97 88.0
89 98 -30.0
89 99 -47.0
89 100 -84.0
89 101 -13.0
89 102 78.0
89 103 -14.0
89 104 -18.0
89 105 -63.0
89 194 -1.0
90 91 -59.0
90 93 -41.0
90 94 10.0
90 95 93.0
90 96 -79.0
90 97 -73.0
90 98 57.0
90 99 29.0
90 100 5.0
90 101 86.0
90 102 -66.0
90 103 -99.0
90 104 25.0
90 105 -62.0
90 195 -1.0
91 1 -1.0
91 196 -1.0
92 2 -1.0
92 197 -1.0
93 3 -1.0
93 198 -1.0
94 4 -1.0
94 199 -1.0
95 5 -1.0
95 200 -1.0
96 6 -1.0
96 201 -1.0
97 7 -1.0
97 202 -1.0
98 8 -1.0
98 203 -1.0
99 9 -1.0
99 204 -1.0
100 10 -1.0
100 205 -1.0
101 11 -1.0
101 206 -1.0
102 12 -1.0
102 207 -1.0
103 13 -1.0
103 208 -1.0
104 14 -1.0
104 209 -1.0
105 15 -1.0
105 210 -1.0
106 16 -1.0
106 211 -1.0
107 17 -1.0
107 212 -1.0
108 18 -1.0
108 213 -1.0
109 19 -1.0
109 214 -1.0
110 20 -1.0
110 215 -1.0
111 21 -1.0
111 216 -1.0
112 22 -1.0
112 217 -1.0
113 23 -1.0
113 218 -1.0
114 24 -1.0
114 219 -1.0
115 25 -1.0
115 220 -1.0
116 26 -1.0
116 221 -1.0
117 27 -1.0
117 222 -1.0
118 28 -1.0
118 223 -1.0
119 29 -1.0
119 224 -1.0
120 30 -1.0
120 225 -1.0
121 31 -1.0
121 226 -1.0
122 32 -1.0
122 227 -1.0
123 33 -1.0
123 228 -1.0
124 34 -1.0
124 229 -1.0
125 35 -1.0
125 230 -1.0
126 36 -1.0
126 231 -1.0
127 37 -1.0
127 232 -1.0
128 38 -1.0
128 233 -1.0
129 39 -1.0
129 234 -1.0
130 40 -1.0
130 235 -1.0
131 41 -1.0
131 236 -1.0
132 42 -1.0
132 237 -1.0
133 43 -1.0
133 238 -1.0
134 44 -1.0
134 239 -1.0
135 45 -1.0
135 240 -1.0
136 46 -1.0
136 241 -1.0
137 47 -1.0
137 242 -1.0
138 48 -1.0
138 243 -1.0
139 49 -1.0
139 244 -1.0
140 50 -1.0
140 245 -1.0
141 51 -1.0
141 246 -1.0
142 52 -1.0
142 247 -1.0
143 53 -1.0
143 248 -1.0
144 54 -1.0
144 249 -1.0
145 55 -1.0
145 250 -1.0
146 56 -1.0
146 251 -1.0
147 57 -1.0
147 252 -1.0
148 58 -1.0
148 253 -1.0
149 59 -1.0
149 254 -1.0
150 60 -1.0
150 255 -1.0
151 61 -1.0
151 256 -1.0
152 62 -1.0
152 257 -1.0
153 63 -1.0
153 258 -1.0
154 64 -1.0
154 259 -1.0
155 65 -1.0
155 260 -1.0
156 66 -1.0
156 261 -1.0
157 67 -1.0
157 262 -1.0
158 68 -1.0
158 263 -1.0
159 69 -1.0
159 264 -1.0
160 70 -1.0
160 265 -1.0
161 71 -1.0
161 266 -1.0
162 72 -1.0
162 267 -1.0
163 73 -1.0
163 268 -1.0
164 74 -1.0
164 269 -1.0
165 75 -1.0
165 270 -1.0
166 76 -1.0
166 271 -1.0
167 77 -1.0
167 272 -1.0
168 78 -1.0
168 273 -1.0
169 79 -1.0
169 274 -1.0
170 80 -1.0
170 275 -1.0
171 81 -1.0
171 276 -1.0
172 82 -1.0
172 277 -1.0
173 83 -1.0
173 278 -1.0
174 84 -1.0
174 279 -1.0
175 85 -1.0
175 280 -1.0
176 86 -1.0
176 281 -1.0
177 87 -1.0
177 282 -1.0
178 88 -1.0
178 283 -1.0
179 89 -1.0
179 284 -1.0
180 90 -1.0
180 285 -1.0
1.79769313486232E+308 # value for infinity
0.0 # default left-hand-side value
180 # number of non-default left-hand-sides
1 -1.79769313486232E+308
2 -1.79769313486232E+308
3 -1.79769313486232E+308
4 -1.79769313486232E+308
5 -1.79769313486232E+308
6 -1.79769313486232E+308
7 -1.79769313486232E+308
8 -1.79769313486232E+308
9 -1.79769313486232E+308
10 -1.79769313486232E+308
11 -1.79769313486232E+308
12 -1.79769313486232E+308
13 -1.79769313486232E+308
14 -1.79769313486232E+308
15 -1.79769313486232E+308
16 -1.79769313486232E+308
17 -1.79769313486232E+308
18 -1.79769313486232E+308
19 -1.79769313486232E+308
20 -1.79769313486232E+308
21 -1.79769313486232E+308
22 -1.79769313486232E+308
23 -1.79769313486232E+308
24 -1.79769313486232E+308
25 -1.79769313486232E+308
26 -1.79769313486232E+308
27 -1.79769313486232E+308
28 -1.79769313486232E+308
29 -1.79769313486232E+308
30 -1.79769313486232E+308
31 -1.79769313486232E+308
32 -1.79769313486232E+308
33 -1.79769313486232E+308
34 -1.79769313486232E+308
35 -1.79769313486232E+308
36 -1.79769313486232E+308
37 -1.79769313486232E+308
38 -1.79769313486232E+308
39 -1.79769313486232E+308
40 -1.79769313486232E+308
41 -1.79769313486232E+308
42 -1.79769313486232E+308
43 -1.79769313486232E+308
44 -1.79769313486232E+308
45 -1.79769313486232E+308
46 -1.79769313486232E+308
47 -1.79769313486232E+308
48 -1.79769313486232E+308
49 -1.79769313486232E+308
50 -1.79769313486232E+308
51 -1.79769313486232E+308
52 -1.79769313486232E+308
53 -1.79769313486232E+308
54 -1.79769313486232E+308
55 -1.79769313486232E+308
56 -1.79769313486232E+308
57 -1.79769313486232E+308
58 -1.79769313486232E+308
59 -1.79769313486232E+308
60 -1.79769313486232E+308
61 -1.79769313486232E+308
62 -1.79769313486232E+308
63 -1.79769313486232E+308
64 -1.79769313486232E+308
65 -1.79769313486232E+308
66 -1.79769313486232E+308
67 -1.79769313486232E+308
68 -1.79769313486232E+308
69 -1.79769313486232E+308
70 -1.79769313486232E+308
71 -1.79769313486232E+308
72 -1.79769313486232E+308
73 -1.79769313486232E+308
74 -1.79769313486232E+308
75 -1.79769313486232E+308
76 -1.79769313486232E+308
77 -1.79769313486232E+308
78 -1.79769313486232E+308
79 -1.79769313486232E+308
80 -1.79769313486232E+308
81 -1.79769313486232E+308
82 -1.79769313486232E+308
83 -1.79769313486232E+308
84 -1.79769313486232E+308
85 -1.79769313486232E+308
86 -1.79769313486232E+308
87 -1.79769313486232E+308
88 -1.79769313486232E+308
89 -1.79769313486232E+308
90 -1.79769313486232E+308
91 -1.0
92 -1.0
93 -1.0
94 -1.0
95 -1.0
96 -1.0
97 -1.0
98 -1.0
99 -1.0
100 -1.0
101 -1.0
102 -1.0
103 -1.0
104 -1.0
105 -1.0
106 -1.0
107 -1.0
108 -1.0
109 -1.0
110 -1.0
111 -1.0
112 -1.0
113 -1.0
114 -1.0
115 -1.0
116 -1.0
117 -1.0
118 -1.0
119 -1.0
120 -1.0
121 -1.0
122 -1.0
123 -1.0
124 -1.0
125 -1.0
126 -1.0
127 -1.0
128 -1.0
129 -1.0
130 -1.0
131 -1.0
132 -1.0
133 -1.0
134 -1.0
135 -1.0
136 -1.0
137 -1.0
138 -1.0
139 -1.0
140 -1.0
141 -1.0
142 -1.0
143 -1.0
144 -1.0
145 -1.0
146 -1.0
147 -1.0
148 -1.0
149 -1.0
150 -1.0
151 -1.0
152 -1.0
153 -1.0
154 -1.0
155 -1.0
156 -1.0
157 -1.0
158 -1.0
159 -1.0
160 -1.0
161 -1.0
162 -1.0
163 -1.0
164 -1.0
165 -1.0
166 -1.0
167 -1.0
168 -1.0
169 -1.0
170 -1.0
171 -1.0
172 -1.0
173 -1.0
174 -1.0
175 -1.0
176 -1.0
177 -1.0
178 -1.0
179 -1.0
180 -1.0
0.0 # default right-hand-side value
180 # number of non-default right-hand-sides
1 55.0
2 -13.0
3 53.0
4 92.0
5 90.0
6 28.0
7 9.0
8 -82.0
9 16.0
10 20.0
11 -34.0
12 -96.0
13 43.0
14 64.0
15 -57.0
16 86.0
17 39.0
18 49.0
19 53.0
20 79.0
21 -87.0
22 -58.0
23 -92.0
24 -12.0
25 39.0
26 -72.0
27 65.0
28 -25.0
29 -63.0
30 3.0
31 -64.0
32 78.0
33 -1.0
34 13.0
35 -60.0
36 77.0
37 68.0
38 -54.0
39 -97.0
40 2.0
41 71.0
42 71.0
43 -84.0
44 -90.0
45 87.0
46 -67.0
47 34.0
48 90.0
49 87.0
50 -14.0
51 35.0
52 -61.0
53 -96.0
54 93.0
55 16.0
56 69.0
57 63.0
58 61.0
59 52.0
60 79.0
61 64.0
62 34.0
63 97.0
64 -31.0
65 -95.0
66 -67.0
67 -63.0
68 1.0
69 61.0
70 -55.0
71 -6.0
72 26.0
73 -86.0
74 67.0
75 -19.0
76 37.0
77 33.0
78 99.0
79 1.0
80 -5.0
81 97.0
82 77.0
83 -93.0
84 86.0
85 78.0
86 -30.0
87 97.0
88 46.0
89 67.0
90 17.0
91 -1.0
92 -1.0
93 -1.0
94 -1.0
95 -1.0
96 -1.0
97 -1.0
98 -1.0
99 -1.0
100 -1.0
101 -1.0
102 -1.0
103 -1.0
104 -1.0
105 -1.0
106 -1.0
107 -1.0
108 -1.0
109 -1.0
110 -1.0
111 -1.0
112 -1.0
113 -1.0
114 -1.0
115 -1.0
116 -1.0
117 -1.0
118 -1.0
119 -1.0
120 -1.0
121 -1.0
122 -1.0
123 -1.0
124 -1.0
125 -1.0
126 -1.0
127 -1.0
128 -1.0
129 -1.0
130 -1.0
131 -1.0
132 -1.0
133 -1.0
134 -1.0
135 -1.0
136 -1.0
137 -1.0
138 -1.0
139 -1.0
140 -1.0
141 -1.0
142 -1.0
143 -1.0
144 -1.0
145 -1.0
146 -1.0
147 -1.0
148 -1.0
149 -1.0
150 -1.0
151 -1.0
152 -1.0
153 -1.0
154 -1.0
155 -1.0
156 -1.0
157 -1.0
158 -1.0
159 -1.0
160 -1.0
161 -1.0
162 -1.0
163 -1.0
164 -1.0
165 -1.0
166 -1.0
167 -1.0
168 -1.0
169 -1.0
170 -1.0
171 -1.0
172 -1.0
173 -1.0
174 -1.0
175 -1.0
176 -1.0
177 -1.0
178 -1.0
179 -1.0
180 -1.0
-1.79769313486232E+308 # default variable lower bound value
180 # number of non-default variable lower bounds
1 0.0
2 0.0
3 0.0
4 0.0
5 0.0
6 0.0
7 0.0
8 0.0
9 0.0
10 0.0
11 0.0
12 0.0
13 0.0
14 0.0
15 0.0
16 0.0
17 0.0
18 0.0
19 0.0
20 0.0
21 0.0
22 0.0
23 0.0
24 0.0
25 0.0
26 0.0
27 0.0
28 0.0
29 0.0
30 0.0
31 0.0
32 0.0
33 0.0
34 0.0
35 0.0
36 0.0
37 0.0
38 0.0
39 0.0
40 0.0
41 0.0
42 0.0
43 0.0
44 0.0
45 0.0
46 0.0
47 0.0
48 0.0
49 0.0
50 0.0
51 0.0
52 0.0
53 0.0
54 0.0
55 0.0
56 0.0
57 0.0
58 0.0
59 0.0
60 0.0
61 0.0
62 0.0
63 0.0
64 0.0
65 0.0
66 0.0
67 0.0
68 0.0
69 0.0
70 0.0
71 0.0
72 0.0
73 0.0
74 0.0
75 0.0
76 0.0
77 0.0
78 0.0
79 0.0
80 0.0
81 0.0
82 0.0
83 0.0
84 0.0
85 0.0
86 0.0
87 0.0
88 0.0
89 0.0
90 0.0
106 0.0
107 0.0
108 0.0
109 0.0
110 0.0
111 0.0
112 0.0
113 0.0
114 0.0
115 0.0
116 0.0
117 0.0
118 0.0
119 0.0
120 0.0
121 0.0
122 0.0
123 0.0
124 0.0
125 0.0
126 0.0
127 0.0
128 0.0
129 0.0
130 0.0
131 0.0
132 0.0
133 0.0
134 0.0
135 0.0
136 0.0
137 0.0
138 0.0
139 0.0
140 0.0
141 0.0
142 0.0
143 0.0
144 0.0
145 0.0
146 0.0
147 0.0
148 0.0
149 0.0
150 0.0
151 0.0
152 0.0
153 0.0
154 0.0
155 0.0
156 0.0
157 0.0
158 0.0
159 0.0
160 0.0
161 0.0
162 0.0
163 0.0
164 0.0
165 0.0
166 0.0
167 0.0
168 0.0
169 0.0
170 0.0
171 0.0
172 0.0
173 0.0
174 0.0
175 0.0
176 0.0
177 0.0
178 0.0
179 0.0
180 0.0
181 0.0
182 0.0
183 0.0
184 0.0
185 0.0
186 0.0
187 0.0
188 0.0
189 0.0
190 0.0
191 0.0
192 0.0
193 0.0
194 0.0
195 0.0
1.79769313486232E+308 # default variable upper bound value
90 # number of non-default variable upper bounds
1 1.0
2 1.0
3 1.0
4 1.0
5 1.0
6 1.0
7 1.0
8 1.0
9 1.0
10 1.0
11 1.0
12 1.0
13 1.0
14 1.0
15 1.0
16 1.0
17 1.0
18 1.0
19 1.0
20 1.0
21 1.0
22 1.0
23 1.0
24 1.0
25 1.0
26 1.0
27 1.0
28 1.0
29 1.0
30 1.0
31 1.0
32 1.0
33 1.0
34 1.0
35 1.0
36 1.0
37 1.0
38 1.0
39 1.0
40 1.0
41 1.0
42 1.0
43 1.0
44 1.0
45 1.0
46 1.0
47 1.0
48 1.0
49 1.0
50 1.0
51 1.0
52 1.0
53 1.0
54 1.0
55 1.0
56 1.0
57 1.0
58 1.0
59 1.0
60 1.0
61 1.0
62 1.0
63 1.0
64 1.0
65 1.0
66 1.0
67 1.0
68 1.0
69 1.0
70 1.0
71 1.0
72 1.0
73 1.0
74 1.0
75 1.0
76 1.0
77 1.0
78 1.0
79 1.0
80 1.0
81 1.0
82 1.0
83 1.0
84 1.0
85 1.0
86 1.0
87 1.0
88 1.0
89 1.0
90 1.0
0 # default variable type
90 # number of non-default variable types
1 1
2 1
3 1
4 1
5 1
6 1
7 1
8 1
9 1
10 1
11 1
12 1
13 1
14 1
15 1
16 1
17 1
18 1
19 1
20 1
21 1
22 1
23 1
24 1
25 1
26 1
27 1
28 1
29 1
30 1
31 1
32 1
33 1
34 1
35 1
36 1
37 1
38 1
39 1
40 1
41 1
42 1
43 1
44 1
45 1
46 1
47 1
48 1
49 1
50 1
51 1
52 1
53 1
54 1
55 1
56 1
57 1
58 1
59 1
60 1
61 1
62 1
63 1
64 1
65 1
66 1
67 1
68 1
69 1
70 1
71 1
72 1
73 1
74 1
75 1
76 1
77 1
78 1
79 1
80 1
81 1
82 1
83 1
84 1
85 1
86 1
87 1
88 1
89 1
90 1
0.0 # default variable primal value in starting point
0 # number of non-default variable primal values in starting point
0.0 # default constraint dual value in starting point
0 # number of non-default constraint dual values in starting point
0.0 # default variable bound dual value in starting point
0 # number of non-default variable bound dual values in starting point
0 # number of non-default variable names
0 # number of non-default constraint names
